/*********************************************
 * OPL 12.9.0.0 Data
 * Author: Administrator
 * Creation Date: 2019年10月5日 at 下午4:24:48
 *********************************************/
nbJobs =5;
nbStages =5;
nbMach =[0,2,2,2,2,2];
nbWork =[0,2,2,2,2,2];
allMach = [0,2,4,6,8,10];
B=10000;
OpDurations = [
[18,21,29,29,19,25,12,14,56,64],
[36,48,25,29,88,91,52,75,81,88],
[20,20,2,2,72,91,57,75,14,18],
[72,89,25,31,35,37,52,64,61,67],
[76,77,83,93,77,86,20,30,64,76]
];
OpDue = [431,920,557,800,1023];

 